98
1000
800	1
794	1
786	1
784	1
769	1
762	1
755	2
753	1
749	1
739	1
732	1
729	1
718	1
713	1
706	1
699	1
676	1
673	1
664	1
659	1
658	1
649	1
648	1
637	1
633	1
627	1
617	1
616	1
607	1
598	1
595	1
590	1
578	1
577	1
568	1
567	1
563	1
561	1
556	1
543	1
539	1
535	1
534	1
499	1
493	1
492	1
488	1
483	1
470	1
468	1
456	1
450	1
443	1
441	1
440	1
432	1
427	1
422	1
403	1
400	1
397	1
396	1
395	1
394	1
392	1
386	1
369	1
367	1
365	1
356	1
338	1
336	1
335	1
332	1
329	1
327	1
326	1
324	1
323	1
319	1
308	1
302	1
296	1
291	1
270	1
269	1
265	1
257	2
243	1
240	1
234	1
232	1
227	1
222	1
216	1
213	1
208	1
207	1
